language Essence 1.3
$ boxed mixed mesh

letting length be 4

$ mesh_avoidance = permutation + mesh pieces

letting mesh_avoidance be { (sequence(1,3,2), relation( (1, 1), (1, 2), (2, 1), (2, 2) )) }
